p cnf 1140 2999
-1140 1122 0
-1140 1128 0
-1140 1130 0
-1140 1132 0
-1140 1133 0
-1140 1134 0
-1140 1135 0
-1140 1136 0
-1140 1137 0
-1140 1138 0
-1139 1122 0
-1139 1128 0
-1139 1130 0
-1139 1132 0
-1139 1133 0
-1139 1134 0
-1139 1135 0
-1139 1136 0
-1139 1137 0
-1139 1138 0
-1139 1140 0
-1138 1122 0
-1138 1128 0
-1138 1130 0
-1138 1132 0
-1138 1133 0
-1138 1135 0
-1137 1122 0
-1137 1128 0
-1137 1130 0
-1137 1132 0
-1137 1133 0
-1137 1135 0
-1137 1136 0
-1137 1138 0
-1136 1122 0
-1136 1128 0
-1136 1130 0
-1136 1132 0
-1136 1133 0
-1136 1135 0
-1136 1138 0
-1135 1122 0
-1135 1132 0
-1135 1133 0
-1134 1122 0
-1134 1128 0
-1134 1130 0
-1134 1132 0
-1134 1133 0
-1134 1135 0
-1134 1136 0
-1134 1137 0
-1134 1138 0
-1133 1122 0
-1132 1122 0
-1132 1133 0
-1131 -1123 0
-1131 1115 0
-1131 1116 0
-1131 1117 0
-1131 1118 0
-1131 1120 0
-1131 1124 0
-1131 1125 0
-1131 1126 0
-1131 1127 0
-1131 1129 0
-1130 1122 0
-1130 1132 0
-1130 1133 0
-1130 1135 0
-1129 -1123 0
-1129 1115 0
-1129 1116 0
-1129 1117 0
-1129 1118 0
-1129 1120 0
-1129 1124 0
-1129 1125 0
-1129 1126 0
-1129 1127 0
-1128 1122 0
-1128 1130 0
-1128 1132 0
-1128 1133 0
-1128 1135 0
-1127 1115 0
-1127 1116 0
-1127 1117 0
-1127 1118 0
-1127 1120 0
-1127 1124 0
-1127 1125 0
-1127 1126 0
-1126 1115 0
-1126 1116 0
-1126 1118 0
-1126 1124 0
-1125 1115 0
-1125 1116 0
-1125 1117 0
-1125 1118 0
-1125 1120 0
-1125 1124 0
-1125 1126 0
-1124 1115 0
-1124 1116 0
-1124 1118 0
-1121 1103 0
-1121 1105 0
-1121 1106 0
-1121 1108 0
-1121 1109 0
-1121 1110 0
-1121 1111 0
-1121 1113 0
-1121 1114 0
-1121 1119 0
-1120 1115 0
-1120 1116 0
-1120 1117 0
-1120 1118 0
-1120 1124 0
-1120 1126 0
-1119 1103 0
-1119 1105 0
-1119 1106 0
-1119 1108 0
-1119 1109 0
-1119 1110 0
-1119 1111 0
-1119 1113 0
-1119 1114 0
-1118 1116 0
-1117 1115 0
-1117 1116 0
-1117 1118 0
-1117 1124 0
-1117 1126 0
-1115 1116 0
-1115 1118 0
-1114 1103 0
-1114 1105 0
-1114 1106 0
-1114 1108 0
-1114 1109 0
-1114 1110 0
-1114 1111 0
-1113 1103 0
-1113 1105 0
-1113 1106 0
-1113 1108 0
-1113 1109 0
-1113 1110 0
-1113 1111 0
-1113 1114 0
-1112 1103 0
-1112 1105 0
-1112 1106 0
-1112 1108 0
-1112 1109 0
-1112 1110 0
-1112 1111 0
-1112 1113 0
-1112 1114 0
-1112 1119 0
-1112 1121 0
-1111 1103 0
-1111 1105 0
-1111 1106 0
-1111 1108 0
-1110 1103 0
-1110 1105 0
-1110 1106 0
-1110 1108 0
-1110 1111 0
-1109 1103 0
-1109 1105 0
-1109 1106 0
-1109 1108 0
-1109 1110 0
-1109 1111 0
-1107 1092 0
-1107 1094 0
-1107 1095 0
-1107 1096 0
-1107 1097 0
-1107 1098 0
-1107 1099 0
-1107 1100 0
-1107 1104 0
-1106 1108 0
-1105 1106 0
-1105 1108 0
-1104 1092 0
-1104 1094 0
-1104 1095 0
-1104 1096 0
-1104 1097 0
-1104 1098 0
-1104 1099 0
-1104 1100 0
-1103 1105 0
-1103 1106 0
-1103 1108 0
-1102 1092 0
-1102 1094 0
-1102 1095 0
-1102 1096 0
-1102 1097 0
-1102 1098 0
-1102 1099 0
-1102 1100 0
-1102 1101 0
-1102 1104 0
-1102 1107 0
-1101 1092 0
-1101 1094 0
-1101 1095 0
-1101 1096 0
-1101 1097 0
-1101 1098 0
-1101 1099 0
-1101 1100 0
-1101 1104 0
-1101 1107 0
-1100 1092 0
-1100 1096 0
-1100 1098 0
-1100 1099 0
-1099 1096 0
-1099 1098 0
-1097 1092 0
-1097 1094 0
-1097 1096 0
-1097 1098 0
-1097 1099 0
-1097 1100 0
-1096 1098 0
-1095 1092 0
-1095 1094 0
-1095 1096 0
-1095 1097 0
-1095 1098 0
-1095 1099 0
-1095 1100 0
-1094 1092 0
-1094 1096 0
-1094 1098 0
-1094 1099 0
-1094 1100 0
-1093 1079 0
-1093 1080 0
-1093 1083 0
-1093 1084 0
-1093 1085 0
-1093 1086 0
-1093 1087 0
-1093 1088 0
-1093 1089 0
-1093 1090 0
-1093 1091 0
-1092 1096 0
-1092 1098 0
-1092 1099 0
-1091 1079 0
-1091 1080 0
-1091 1083 0
-1091 1084 0
-1091 1085 0
-1091 1086 0
-1091 1089 0
-1090 1079 0
-1090 1080 0
-1090 1083 0
-1090 1084 0
-1090 1085 0
-1090 1086 0
-1090 1087 0
-1090 1089 0
-1090 1091 0
-1089 1079 0
-1089 1080 0
-1089 1083 0
-1089 1084 0
-1089 1086 0
-1088 1079 0
-1088 1080 0
-1088 1083 0
-1088 1084 0
-1088 1085 0
-1088 1086 0
-1088 1087 0
-1088 1089 0
-1088 1090 0
-1088 1091 0
-1087 1079 0
-1087 1080 0
-1087 1083 0
-1087 1084 0
-1087 1085 0
-1087 1086 0
-1087 1089 0
-1087 1091 0
-1086 1079 0
-1086 1084 0
-1085 1079 0
-1085 1080 0
-1085 1083 0
-1085 1084 0
-1085 1086 0
-1085 1089 0
-1083 1079 0
-1083 1080 0
-1083 1084 0
-1083 1086 0
-1082 1066 0
-1082 1067 0
-1082 1070 0
-1082 1072 0
-1082 1074 0
-1082 1076 0
-1082 1077 0
-1081 1066 0
-1081 1067 0
-1081 1070 0
-1081 1072 0
-1081 1073 0
-1081 1074 0
-1081 1075 0
-1081 1076 0
-1081 1077 0
-1081 1078 0
-1081 1082 0
-1080 1079 0
-1080 1084 0
-1080 1086 0
-1079 1084 0
-1078 1066 0
-1078 1067 0
-1078 1070 0
-1078 1072 0
-1078 1073 0
-1078 1074 0
-1078 1076 0
-1078 1077 0
-1078 1082 0
-1077 1066 0
-1077 1067 0
-1077 1070 0
-1077 1076 0
-1076 1066 0
-1076 1067 0
-1076 1070 0
-1075 1066 0
-1075 1067 0
-1075 1070 0
-1075 1072 0
-1075 1073 0
-1075 1074 0
-1075 1076 0
-1075 1077 0
-1075 1078 0
-1075 1082 0
-1074 1066 0
-1074 1067 0
-1074 1070 0
-1074 1072 0
-1074 1076 0
-1074 1077 0
-1073 1066 0
-1073 1067 0
-1073 1070 0
-1073 1072 0
-1073 1074 0
-1073 1076 0
-1073 1077 0
-1073 1082 0
-1072 1066 0
-1072 1067 0
-1072 1070 0
-1072 1076 0
-1072 1077 0
-1071 1054 0
-1071 1056 0
-1071 1057 0
-1071 1059 0
-1071 1061 0
-1071 1062 0
-1071 1063 0
-1071 1064 0
-1071 1065 0
-1071 1069 0
-1070 1066 0
-1070 1067 0
-1069 1054 0
-1069 1056 0
-1069 1057 0
-1069 1059 0
-1069 1061 0
-1069 1062 0
-1069 1063 0
-1069 1064 0
-1069 1065 0
-1068 1054 0
-1068 1056 0
-1068 1057 0
-1068 1059 0
-1068 1061 0
-1068 1062 0
-1068 1063 0
-1068 1064 0
-1068 1065 0
-1068 1069 0
-1068 1071 0
-1066 1067 0
-1065 1054 0
-1065 1056 0
-1065 1061 0
-1065 1062 0
-1064 1054 0
-1064 1056 0
-1064 1061 0
-1064 1062 0
-1064 1065 0
-1063 1054 0
-1063 1056 0
-1063 1057 0
-1063 1059 0
-1063 1061 0
-1063 1062 0
-1063 1064 0
-1063 1065 0
-1062 1054 0
-1062 1056 0
-1062 1061 0
-1059 1054 0
-1059 1056 0
-1059 1061 0
-1059 1062 0
-1059 1064 0
-1059 1065 0
-1057 1054 0
-1057 1056 0
-1057 1059 0
-1057 1061 0
-1057 1062 0
-1057 1064 0
-1057 1065 0
-1056 1054 0
-1056 1061 0
-1054 1061 0
-611 84 0
-611 86 0
-611 95 0
-609 84 0
-609 86 0
-609 99 0
-606 84 0
-606 86 0
-606 92 0
-605 86 0
-605 90 0
-605 92 0
-604 86 0
-604 90 0
-604 99 0
-603 86 0
-603 92 0
-603 94 0
-602 86 0
-602 90 0
-602 91 0
-601 84 0
-601 86 0
-601 91 0
-600 86 0
-600 90 0
-600 95 0
-599 -93 0
-599 86 0
-599 92 0
-598 86 0
-598 94 0
-598 95 0
-597 -93 0
-597 86 0
-597 95 0
-596 -93 0
-596 86 0
-596 99 0
-595 86 0
-595 94 0
-595 99 0
-594 86 0
-594 91 0
-594 94 0
-593 -93 0
-593 86 0
-593 91 0
-592 81 0
-592 84 0
-592 99 0
-591 81 0
-591 90 0
-591 95 0
-590 81 0
-590 84 0
-590 91 0
-589 81 0
-589 84 0
-589 92 0
-588 81 0
-588 84 0
-588 95 0
-587 81 0
-587 90 0
-587 91 0
-586 -93 0
-586 81 0
-586 92 0
-585 81 0
-585 94 0
-585 95 0
-584 81 0
-584 91 0
-584 94 0
-583 81 0
-583 90 0
-583 92 0
-582 81 0
-582 92 0
-582 94 0
-581 81 0
-581 90 0
-581 99 0
-580 -93 0
-580 81 0
-580 99 0
-579 -93 0
-579 81 0
-579 95 0
-578 84 0
-578 85 0
-578 95 0
-577 81 0
-577 94 0
-577 99 0
-576 85 0
-576 90 0
-576 92 0
-575 84 0
-575 85 0
-575 99 0
-574 -93 0
-574 81 0
-574 91 0
-573 84 0
-573 85 0
-573 91 0
-572 84 0
-572 85 0
-572 92 0
-570 -93 0
-570 85 0
-570 95 0
-569 85 0
-569 90 0
-569 95 0
-568 85 0
-568 90 0
-568 91 0
-567 85 0
-567 94 0
-567 95 0
-566 85 0
-566 91 0
-566 94 0
-565 -93 0
-565 85 0
-565 92 0
-564 85 0
-564 94 0
-564 99 0
-563 85 0
-563 92 0
-563 94 0
-562 84 0
-562 88 0
-562 99 0
-561 88 0
-561 90 0
-561 95 0
-560 84 0
-560 88 0
-560 91 0
-559 84 0
-559 88 0
-559 95 0
-558 -93 0
-558 85 0
-558 99 0
-557 88 0
-557 90 0
-557 92 0
-555 88 0
-555 90 0
-555 91 0
-554 88 0
-554 90 0
-554 99 0
-553 88 0
-553 92 0
-553 94 0
-552 84 0
-552 88 0
-552 92 0
-551 88 0
-551 94 0
-551 99 0
-550 88 0
-550 94 0
-550 95 0
-549 88 0
-549 91 0
-549 94 0
-548 -93 0
-548 88 0
-548 91 0
-547 74 0
-547 78 0
-547 83 0
-546 74 0
-546 77 0
-546 78 0
-545 74 0
-545 78 0
-545 89 0
-544 74 0
-544 78 0
-544 87 0
-543 -93 0
-543 88 0
-543 95 0
-542 74 0
-542 77 0
-542 79 0
-541 -93 0
-541 88 0
-541 92 0
-540 74 0
-540 79 0
-540 89 0
-539 74 0
-539 79 0
-539 83 0
-538 -93 0
-538 88 0
-538 99 0
-537 74 0
-537 77 0
-537 82 0
-536 74 0
-536 82 0
-536 83 0
-535 74 0
-535 82 0
-535 89 0
-534 74 0
-534 79 0
-534 87 0
-533 74 0
-533 82 0
-533 87 0
-532 76 0
-532 78 0
-532 87 0
-531 74 0
-531 80 0
-531 89 0
-530 74 0
-530 80 0
-530 87 0
-529 74 0
-529 77 0
-529 80 0
-528 76 0
-528 78 0
-528 83 0
-527 74 0
-527 80 0
-527 83 0
-526 76 0
-526 77 0
-526 78 0
-525 76 0
-525 79 0
-525 87 0
-524 76 0
-524 77 0
-524 79 0
-523 76 0
-523 78 0
-523 89 0
-522 76 0
-522 80 0
-522 87 0
-521 76 0
-521 77 0
-521 82 0
-520 76 0
-520 79 0
-520 83 0
-519 76 0
-519 79 0
-519 89 0
-518 76 0
-518 82 0
-518 87 0
-517 76 0
-517 82 0
-517 83 0
-516 76 0
-516 80 0
-516 83 0
-515 76 0
-515 82 0
-515 89 0
-514 76 0
-514 80 0
-514 89 0
-513 75 0
-513 77 0
-513 78 0
-512 75 0
-512 77 0
-512 79 0
-511 75 0
-511 78 0
-511 89 0
-510 75 0
-510 78 0
-510 87 0
-509 76 0
-509 77 0
-509 80 0
-508 75 0
-508 79 0
-508 83 0
-507 75 0
-507 78 0
-507 83 0
-506 75 0
-506 79 0
-506 89 0
-505 75 0
-505 79 0
-505 87 0
-504 75 0
-504 77 0
-504 82 0
-503 75 0
-503 80 0
-503 83 0
-502 75 0
-502 82 0
-502 87 0
-501 75 0
-501 82 0
-501 83 0
-500 75 0
-500 82 0
-500 89 0
-499 75 0
-499 80 0
-499 87 0
-498 73 0
-498 78 0
-498 88 0
-498 89 0
-498 1122 0
-497 73 0
-497 79 0
-497 87 0
-497 88 0
-497 1122 0
-496 75 0
-496 80 0
-496 89 0
-495 75 0
-495 77 0
-495 80 0
-494 73 0
-494 79 0
-494 88 0
-494 89 0
-494 1122 0
-493 73 0
-493 78 0
-493 83 0
-493 88 0
-493 1122 0
-492 73 0
-492 79 0
-492 83 0
-492 88 0
-492 1122 0
-491 73 0
-491 78 0
-491 87 0
-491 88 0
-491 1122 0
-490 73 0
-490 77 0
-490 79 0
-490 88 0
-490 1122 0
-489 73 0
-489 77 0
-489 82 0
-489 88 0
-489 1122 0
-488 73 0
-488 80 0
-488 87 0
-488 88 0
-488 1122 0
-487 73 0
-487 77 0
-487 78 0
-487 88 0
-487 1122 0
-486 73 0
-486 82 0
-486 83 0
-486 88 0
-486 1122 0
-485 73 0
-485 77 0
-485 80 0
-485 88 0
-485 1122 0
-484 73 0
-484 82 0
-484 87 0
-484 88 0
-484 1122 0
-483 57 0
-483 62 0
-483 70 0
-482 57 0
-482 62 0
-482 71 0
-480 73 0
-480 80 0
-480 83 0
-480 88 0
-480 1122 0
-479 57 0
-479 62 0
-479 69 0
-478 73 0
-478 80 0
-478 88 0
-478 89 0
-478 1122 0
-477 57 0
-477 68 0
-477 71 0
-476 57 0
-476 64 0
-476 68 0
-475 57 0
-475 62 0
-475 64 0
-474 57 0
-474 70 0
-474 72 0
-473 57 0
-473 68 0
-473 69 0
-472 57 0
-472 64 0
-472 72 0
-471 57 0
-471 68 0
-471 70 0
-470 57 0
-470 64 0
-470 66 0
-469 57 0
-469 71 0
-469 72 0
-468 62 0
-468 64 0
-468 67 0
-467 57 0
-467 66 0
-467 71 0
-466 57 0
-466 66 0
-466 69 0
-465 57 0
-465 69 0
-465 72 0
-464 62 0
-464 67 0
-464 69 0
-463 57 0
-463 66 0
-463 70 0
-462 62 0
-462 67 0
-462 71 0
-461 67 0
-461 68 0
-461 71 0
-460 67 0
-460 68 0
-460 70 0
-459 67 0
-459 70 0
-459 72 0
-458 67 0
-458 69 0
-458 72 0
-457 67 0
-457 68 0
-457 69 0
-456 62 0
-456 67 0
-456 70 0
-455 66 0
-455 67 0
-455 71 0
-454 64 0
-454 67 0
-454 72 0
-453 64 0
-453 67 0
-453 68 0
-452 67 0
-452 71 0
-452 72 0
-451 64 0
-451 66 0
-451 67 0
-450 66 0
-450 67 0
-450 70 0
-449 62 0
-449 63 0
-449 71 0
-448 62 0
-448 63 0
-448 69 0
-447 62 0
-447 63 0
-447 64 0
-446 63 0
-446 64 0
-446 68 0
-445 63 0
-445 64 0
-445 72 0
-444 63 0
-444 68 0
-444 69 0
-443 63 0
-443 71 0
-443 72 0
-442 66 0
-442 67 0
-442 69 0
-441 63 0
-441 64 0
-441 66 0
-440 62 0
-440 63 0
-440 70 0
-439 63 0
-439 68 0
-439 71 0
-438 63 0
-438 66 0
-438 70 0
-437 63 0
-437 69 0
-437 72 0
-436 63 0
-436 68 0
-436 70 0
-435 63 0
-435 66 0
-435 71 0
-434 63 0
-434 70 0
-434 72 0
-433 62 0
-433 65 0
-433 70 0
-433 73 0
-433 88 0
-433 1116 0
-433 1122 0
-432 65 0
-432 68 0
-432 71 0
-432 73 0
-432 88 0
-432 1116 0
-432 1122 0
-431 62 0
-431 64 0
-431 65 0
-431 73 0
-431 88 0
-431 1116 0
-431 1122 0
-430 62 0
-430 65 0
-430 69 0
-430 73 0
-430 88 0
-430 1116 0
-430 1122 0
-429 65 0
-429 68 0
-429 69 0
-429 73 0
-429 88 0
-429 1116 0
-429 1122 0
-428 65 0
-428 70 0
-428 72 0
-428 73 0
-428 88 0
-428 1116 0
-428 1122 0
-427 62 0
-427 65 0
-427 71 0
-427 73 0
-427 88 0
-427 1116 0
-427 1122 0
-426 63 0
-426 66 0
-426 69 0
-425 64 0
-425 65 0
-425 66 0
-425 73 0
-425 88 0
-425 1116 0
-425 1122 0
-424 65 0
-424 68 0
-424 70 0
-424 73 0
-424 88 0
-424 1116 0
-424 1122 0
-423 65 0
-423 69 0
-423 72 0
-423 73 0
-423 88 0
-423 1116 0
-423 1122 0
-422 64 0
-422 65 0
-422 68 0
-422 73 0
-422 88 0
-422 1116 0
-422 1122 0
-421 65 0
-421 71 0
-421 72 0
-421 73 0
-421 88 0
-421 1116 0
-421 1122 0
-420 -58 0
-420 49 0
-420 51 0
-419 64 0
-419 65 0
-419 72 0
-419 73 0
-419 88 0
-419 1116 0
-419 1122 0
-418 65 0
-418 66 0
-418 70 0
-418 73 0
-418 88 0
-418 1116 0
-418 1122 0
-417 65 0
-417 66 0
-417 71 0
-417 73 0
-417 88 0
-417 1116 0
-417 1122 0
-416 65 0
-416 66 0
-416 69 0
-416 73 0
-416 88 0
-416 1116 0
-416 1122 0
-415 49 0
-415 51 0
-415 60 0
-414 49 0
-414 51 0
-414 61 0
-413 49 0
-413 59 0
-413 60 0
-412 49 0
-412 51 0
-412 52 0
-411 49 0
-411 59 0
-411 61 0
-410 -58 0
-410 49 0
-410 59 0
-409 -58 0
-409 49 0
-409 56 0
-408 49 0
-408 56 0
-408 60 0
-407 49 0
-407 52 0
-407 56 0
-406 -58 0
-406 49 0
-406 53 0
-405 49 0
-405 56 0
-405 61 0
-404 49 0
-404 53 0
-404 60 0
-403 49 0
-403 52 0
-403 53 0
-402 49 0
-402 52 0
-402 59 0
-401 49 0
-401 53 0
-401 61 0
-400 55 0
-400 59 0
-400 61 0
-399 55 0
-399 59 0
-399 60 0
-398 51 0
-398 52 0
-398 55 0
-397 51 0
-397 55 0
-397 60 0
-396 51 0
-396 55 0
-396 61 0
-395 55 0
-395 56 0
-395 61 0
-394 -58 0
-394 51 0
-394 55 0
-393 -58 0
-393 55 0
-393 56 0
-392 -58 0
-392 55 0
-392 59 0
-391 52 0
-391 55 0
-391 59 0
-390 53 0
-390 55 0
-390 60 0
-389 52 0
-389 55 0
-389 56 0
-388 55 0
-388 56 0
-388 60 0
-387 51 0
-387 54 0
-387 60 0
-386 51 0
-386 54 0
-386 61 0
-385 -58 0
-385 53 0
-385 55 0
-384 53 0
-384 55 0
-384 61 0
-383 -58 0
-383 51 0
-383 54 0
-382 52 0
-382 53 0
-382 55 0
-381 51 0
-381 52 0
-381 54 0
-380 54 0
-380 56 0
-380 61 0
-379 -58 0
-379 54 0
-379 56 0
-378 54 0
-378 56 0
-378 60 0
-377 52 0
-377 54 0
-377 59 0
-376 54 0
-376 59 0
-376 61 0
-375 52 0
-375 54 0
-375 56 0
-374 -58 0
-374 54 0
-374 59 0
-373 54 0
-373 59 0
-373 60 0
-372 53 0
-372 54 0
-372 61 0
-371 52 0
-371 53 0
-371 54 0
-370 47 0
-370 51 0
-370 61 0
-370 65 0
-370 73 0
-370 88 0
-370 1108 0
-370 1116 0
-370 1122 0
-369 47 0
-369 59 0
-369 60 0
-369 65 0
-369 73 0
-369 88 0
-369 1108 0
-369 1116 0
-369 1122 0
-368 -58 0
-368 53 0
-368 54 0
-367 47 0
-367 51 0
-367 52 0
-367 65 0
-367 73 0
-367 88 0
-367 1108 0
-367 1116 0
-367 1122 0
-366 47 0
-366 51 0
-366 60 0
-366 65 0
-366 73 0
-366 88 0
-366 1108 0
-366 1116 0
-366 1122 0
-365 53 0
-365 54 0
-365 60 0
-364 -58 0
-364 47 0
-364 51 0
-364 65 0
-364 73 0
-364 88 0
-364 1108 0
-364 1116 0
-364 1122 0
-363 -58 0
-363 47 0
-363 59 0
-363 65 0
-363 73 0
-363 88 0
-363 1108 0
-363 1116 0
-363 1122 0
-362 47 0
-362 59 0
-362 61 0
-362 65 0
-362 73 0
-362 88 0
-362 1108 0
-362 1116 0
-362 1122 0
-361 47 0
-361 52 0
-361 59 0
-361 65 0
-361 73 0
-361 88 0
-361 1108 0
-361 1116 0
-361 1122 0
-360 47 0
-360 53 0
-360 61 0
-360 65 0
-360 73 0
-360 88 0
-360 1108 0
-360 1116 0
-360 1122 0
-359 47 0
-359 56 0
-359 61 0
-359 65 0
-359 73 0
-359 88 0
-359 1108 0
-359 1116 0
-359 1122 0
-358 47 0
-358 53 0
-358 60 0
-358 65 0
-358 73 0
-358 88 0
-358 1108 0
-358 1116 0
-358 1122 0
-357 47 0
-357 52 0
-357 56 0
-357 65 0
-357 73 0
-357 88 0
-357 1108 0
-357 1116 0
-357 1122 0
-356 38 0
-356 42 0
-356 43 0
-355 -58 0
-355 47 0
-355 56 0
-355 65 0
-355 73 0
-355 88 0
-355 1108 0
-355 1116 0
-355 1122 0
-354 47 0
-354 56 0
-354 60 0
-354 65 0
-354 73 0
-354 88 0
-354 1108 0
-354 1116 0
-354 1122 0
-353 38 0
-353 43 0
-353 45 0
-352 -58 0
-352 47 0
-352 53 0
-352 65 0
-352 73 0
-352 88 0
-352 1108 0
-352 1116 0
-352 1122 0
-351 38 0
-351 43 0
-351 50 0
-350 47 0
-350 52 0
-350 53 0
-350 65 0
-350 73 0
-350 88 0
-350 1108 0
-350 1116 0
-350 1122 0
-349 43 0
-349 48 0
-349 50 0
-348 43 0
-348 44 0
-348 50 0
-347 38 0
-347 43 0
-347 46 0
-346 43 0
-346 45 0
-346 48 0
-345 43 0
-345 44 0
-345 46 0
-344 42 0
-344 43 0
-344 48 0
-343 43 0
-343 46 0
-343 48 0
-342 42 0
-342 43 0
-342 44 0
-341 36 0
-341 43 0
-341 46 0
-340 43 0
-340 44 0
-340 45 0
-339 36 0
-339 42 0
-339 43 0
-338 36 0
-338 43 0
-338 45 0
-337 38 0
-337 40 0
-337 45 0
-336 36 0
-336 43 0
-336 50 0
-335 38 0
-335 40 0
-335 50 0
-334 40 0
-334 44 0
-334 45 0
-333 38 0
-333 40 0
-333 42 0
-332 40 0
-332 42 0
-332 48 0
-331 38 0
-331 40 0
-331 46 0
-330 40 0
-330 45 0
-330 48 0
-329 40 0
-329 48 0
-329 50 0
-328 40 0
-328 44 0
-328 46 0
-327 40 0
-327 46 0
-327 48 0
-326 40 0
-326 42 0
-326 44 0
-325 36 0
-325 40 0
-325 42 0
-324 40 0
-324 44 0
-324 50 0
-323 36 0
-323 40 0
-323 46 0
-322 34 0
-322 42 0
-322 48 0
-321 36 0
-321 40 0
-321 50 0
-320 34 0
-320 38 0
-320 50 0
-319 36 0
-319 40 0
-319 45 0
-318 34 0
-318 48 0
-318 50 0
-317 34 0
-317 38 0
-317 42 0
-316 34 0
-316 46 0
-316 48 0
-315 34 0
-315 38 0
-315 45 0
-314 34 0
-314 44 0
-314 46 0
-313 34 0
-313 38 0
-313 46 0
-312 34 0
-312 45 0
-312 48 0
-311 34 0
-311 36 0
-311 46 0
-310 34 0
-310 44 0
-310 45 0
-309 34 0
-309 42 0
-309 44 0
-308 34 0
-308 44 0
-308 50 0
-307 34 0
-307 36 0
-307 42 0
-306 38 0
-306 39 0
-306 45 0
-306 47 0
-306 65 0
-306 73 0
-306 88 0
-306 1098 0
-306 1108 0
-306 1116 0
-306 1122 0
-305 34 0
-305 36 0
-305 50 0
-304 38 0
-304 39 0
-304 42 0
-304 47 0
-304 65 0
-304 73 0
-304 88 0
-304 1098 0
-304 1108 0
-304 1116 0
-304 1122 0
-303 39 0
-303 45 0
-303 47 0
-303 48 0
-303 65 0
-303 73 0
-303 88 0
-303 1098 0
-303 1108 0
-303 1116 0
-303 1122 0
-302 34 0
-302 36 0
-302 45 0
-301 39 0
-301 47 0
-301 48 0
-301 50 0
-301 65 0
-301 73 0
-301 88 0
-301 1098 0
-301 1108 0
-301 1116 0
-301 1122 0
-300 38 0
-300 39 0
-300 46 0
-300 47 0
-300 65 0
-300 73 0
-300 88 0
-300 1098 0
-300 1108 0
-300 1116 0
-300 1122 0
-299 38 0
-299 39 0
-299 47 0
-299 50 0
-299 65 0
-299 73 0
-299 88 0
-299 1098 0
-299 1108 0
-299 1116 0
-299 1122 0
-298 39 0
-298 42 0
-298 44 0
-298 47 0
-298 65 0
-298 73 0
-298 88 0
-298 1098 0
-298 1108 0
-298 1116 0
-298 1122 0
-297 36 0
-297 39 0
-297 45 0
-297 47 0
-297 65 0
-297 73 0
-297 88 0
-297 1098 0
-297 1108 0
-297 1116 0
-297 1122 0
-296 39 0
-296 44 0
-296 46 0
-296 47 0
-296 65 0
-296 73 0
-296 88 0
-296 1098 0
-296 1108 0
-296 1116 0
-296 1122 0
-295 39 0
-295 44 0
-295 45 0
-295 47 0
-295 65 0
-295 73 0
-295 88 0
-295 1098 0
-295 1108 0
-295 1116 0
-295 1122 0
-294 39 0
-294 44 0
-294 47 0
-294 50 0
-294 65 0
-294 73 0
-294 88 0
-294 1098 0
-294 1108 0
-294 1116 0
-294 1122 0
-293 39 0
-293 42 0
-293 47 0
-293 48 0
-293 65 0
-293 73 0
-293 88 0
-293 1098 0
-293 1108 0
-293 1116 0
-293 1122 0
-292 39 0
-292 46 0
-292 47 0
-292 48 0
-292 65 0
-292 73 0
-292 88 0
-292 1098 0
-292 1108 0
-292 1116 0
-292 1122 0
-291 28 0
-291 30 0
-291 41 0
-290 36 0
-290 39 0
-290 46 0
-290 47 0
-290 65 0
-290 73 0
-290 88 0
-290 1098 0
-290 1108 0
-290 1116 0
-290 1122 0
-289 36 0
-289 39 0
-289 47 0
-289 50 0
-289 65 0
-289 73 0
-289 88 0
-289 1098 0
-289 1108 0
-289 1116 0
-289 1122 0
-288 36 0
-288 39 0
-288 42 0
-288 47 0
-288 65 0
-288 73 0
-288 88 0
-288 1098 0
-288 1108 0
-288 1116 0
-288 1122 0
-287 28 0
-287 30 0
-287 32 0
-286 30 0
-286 31 0
-286 37 0
-285 26 0
-285 30 0
-285 32 0
-284 26 0
-284 30 0
-284 37 0
-283 28 0
-283 30 0
-283 37 0
-282 30 0
-282 31 0
-282 35 0
-281 30 0
-281 31 0
-281 32 0
-280 26 0
-280 30 0
-280 35 0
-279 28 0
-279 30 0
-279 35 0
-278 30 0
-278 32 0
-278 33 0
-277 30 0
-277 31 0
-277 41 0
-276 30 0
-276 33 0
-276 41 0
-275 26 0
-275 30 0
-275 41 0
-274 22 0
-274 28 0
-274 41 0
-273 30 0
-273 33 0
-273 37 0
-272 22 0
-272 31 0
-272 41 0
-270 30 0
-270 33 0
-270 35 0
-269 22 0
-269 28 0
-269 37 0
-268 22 0
-268 26 0
-268 37 0
-267 22 0
-267 28 0
-267 32 0
-266 22 0
-266 31 0
-266 32 0
-265 22 0
-265 32 0
-265 33 0
-264 22 0
-264 31 0
-264 37 0
-263 22 0
-263 28 0
-263 35 0
-262 22 0
-262 26 0
-262 41 0
-261 22 0
-261 26 0
-261 32 0
-260 25 0
-260 28 0
-260 32 0
-259 22 0
-259 26 0
-259 35 0
-258 22 0
-258 33 0
-258 41 0
-257 25 0
-257 31 0
-257 41 0
-256 22 0
-256 33 0
-256 35 0
-255 25 0
-255 31 0
-255 37 0
-254 22 0
-254 33 0
-254 37 0
-253 25 0
-253 28 0
-253 35 0
-252 25 0
-252 28 0
-252 41 0
-251 25 0
-251 26 0
-251 37 0
-250 25 0
-250 31 0
-250 35 0
-249 25 0
-249 28 0
-249 37 0
-248 25 0
-248 26 0
-248 41 0
-247 25 0
-247 26 0
-247 32 0
-246 25 0
-246 31 0
-246 32 0
-245 25 0
-245 26 0
-245 35 0
-244 25 0
-244 33 0
-244 37 0
-243 28 0
-243 29 0
-243 32 0
-243 39 0
-243 47 0
-243 65 0
-243 73 0
-243 88 0
-243 1084 0
-243 1098 0
-243 1108 0
-243 1116 0
-243 1122 0
-242 29 0
-242 31 0
-242 39 0
-242 41 0
-242 47 0
-242 65 0
-242 73 0
-242 88 0
-242 1084 0
-242 1098 0
-242 1108 0
-242 1116 0
-242 1122 0
-241 28 0
-241 29 0
-241 35 0
-241 39 0
-241 47 0
-241 65 0
-241 73 0
-241 88 0
-241 1084 0
-241 1098 0
-241 1108 0
-241 1116 0
-241 1122 0
-240 25 0
-240 32 0
-240 33 0
-239 25 0
-239 33 0
-239 35 0
-238 25 0
-238 33 0
-238 41 0
-237 28 0
-237 29 0
-237 37 0
-237 39 0
-237 47 0
-237 65 0
-237 73 0
-237 88 0
-237 1084 0
-237 1098 0
-237 1108 0
-237 1116 0
-237 1122 0
-236 28 0
-236 29 0
-236 39 0
-236 41 0
-236 47 0
-236 65 0
-236 73 0
-236 88 0
-236 1084 0
-236 1098 0
-236 1108 0
-236 1116 0
-236 1122 0
-235 29 0
-235 31 0
-235 37 0
-235 39 0
-235 47 0
-235 65 0
-235 73 0
-235 88 0
-235 1084 0
-235 1098 0
-235 1108 0
-235 1116 0
-235 1122 0
-234 26 0
-234 29 0
-234 35 0
-234 39 0
-234 47 0
-234 65 0
-234 73 0
-234 88 0
-234 1084 0
-234 1098 0
-234 1108 0
-234 1116 0
-234 1122 0
-233 26 0
-233 29 0
-233 32 0
-233 39 0
-233 47 0
-233 65 0
-233 73 0
-233 88 0
-233 1084 0
-233 1098 0
-233 1108 0
-233 1116 0
-233 1122 0
-232 29 0
-232 31 0
-232 32 0
-232 39 0
-232 47 0
-232 65 0
-232 73 0
-232 88 0
-232 1084 0
-232 1098 0
-232 1108 0
-232 1116 0
-232 1122 0
-231 26 0
-231 29 0
-231 39 0
-231 41 0
-231 47 0
-231 65 0
-231 73 0
-231 88 0
-231 1084 0
-231 1098 0
-231 1108 0
-231 1116 0
-231 1122 0
-230 26 0
-230 29 0
-230 37 0
-230 39 0
-230 47 0
-230 65 0
-230 73 0
-230 88 0
-230 1084 0
-230 1098 0
-230 1108 0
-230 1116 0
-230 1122 0
-229 29 0
-229 31 0
-229 35 0
-229 39 0
-229 47 0
-229 65 0
-229 73 0
-229 88 0
-229 1084 0
-229 1098 0
-229 1108 0
-229 1116 0
-229 1122 0
-228 29 0
-228 33 0
-228 37 0
-228 39 0
-228 47 0
-228 65 0
-228 73 0
-228 88 0
-228 1084 0
-228 1098 0
-228 1108 0
-228 1116 0
-228 1122 0
-227 11 0
-227 20 0
-227 23 0
-226 29 0
-226 32 0
-226 33 0
-226 39 0
-226 47 0
-226 65 0
-226 73 0
-226 88 0
-226 1084 0
-226 1098 0
-226 1108 0
-226 1116 0
-226 1122 0
-225 29 0
-225 33 0
-225 39 0
-225 41 0
-225 47 0
-225 65 0
-225 73 0
-225 88 0
-225 1084 0
-225 1098 0
-225 1108 0
-225 1116 0
-225 1122 0
-224 11 0
-224 20 0
-224 27 0
-223 18 0
-223 20 0
-223 24 0
-222 11 0
-222 19 0
-222 20 0
-221 29 0
-221 33 0
-221 35 0
-221 39 0
-221 47 0
-221 65 0
-221 73 0
-221 88 0
-221 1084 0
-221 1098 0
-221 1108 0
-221 1116 0
-221 1122 0
-220 11 0
-220 20 0
-220 24 0
-219 18 0
-219 20 0
-219 23 0
-218 18 0
-218 20 0
-218 27 0
-217 18 0
-217 19 0
-217 20 0
-216 16 0
-216 20 0
-216 27 0
-215 20 0
-215 21 0
-215 24 0
-214 20 0
-214 21 0
-214 27 0
-213 16 0
-213 19 0
-213 20 0
-212 16 0
-212 20 0
-212 23 0
-211 19 0
-211 20 0
-211 21 0
-210 20 0
-210 21 0
-210 23 0
-209 11 0
-209 12 0
-209 23 0
-208 16 0
-208 20 0
-208 24 0
-207 11 0
-207 12 0
-207 19 0
-206 11 0
-206 12 0
-206 27 0
-205 11 0
-205 12 0
-205 24 0
-204 12 0
-204 18 0
-204 27 0
-203 12 0
-203 18 0
-203 19 0
-202 12 0
-202 21 0
-202 24 0
-201 12 0
-201 18 0
-201 24 0
-200 12 0
-200 18 0
-200 23 0
-199 10 0
-199 11 0
-199 27 0
-198 12 0
-198 16 0
-198 27 0
-197 12 0
-197 21 0
-197 27 0
-196 12 0
-196 21 0
-196 23 0
-195 12 0
-195 19 0
-195 21 0
-194 12 0
-194 16 0
-194 19 0
-193 10 0
-193 11 0
-193 23 0
-192 10 0
-192 11 0
-192 24 0
-191 12 0
-191 16 0
-191 23 0
-190 12 0
-190 16 0
-190 24 0
-189 10 0
-189 11 0
-189 19 0
-188 10 0
-188 18 0
-188 19 0
-187 10 0
-187 18 0
-187 27 0
-186 10 0
-186 18 0
-186 24 0
-185 10 0
-185 18 0
-185 23 0
-184 10 0
-184 21 0
-184 27 0
-183 10 0
-183 19 0
-183 21 0
-182 10 0
-182 16 0
-182 24 0
-181 10 0
-181 21 0
-181 24 0
-180 10 0
-180 16 0
-180 27 0
-179 11 0
-179 14 0
-179 24 0
-179 29 0
-179 39 0
-179 47 0
-179 65 0
-179 73 0
-179 88 0
-179 1067 0
-179 1084 0
-179 1098 0
-179 1108 0
-179 1116 0
-179 1122 0
-178 11 0
-178 14 0
-178 19 0
-178 29 0
-178 39 0
-178 47 0
-178 65 0
-178 73 0
-178 88 0
-178 1067 0
-178 1084 0
-178 1098 0
-178 1108 0
-178 1116 0
-178 1122 0
-177 10 0
-177 21 0
-177 23 0
-176 11 0
-176 14 0
-176 23 0
-176 29 0
-176 39 0
-176 47 0
-176 65 0
-176 73 0
-176 88 0
-176 1067 0
-176 1084 0
-176 1098 0
-176 1108 0
-176 1116 0
-176 1122 0
-175 14 0
-175 18 0
-175 24 0
-175 29 0
-175 39 0
-175 47 0
-175 65 0
-175 73 0
-175 88 0
-175 1067 0
-175 1084 0
-175 1098 0
-175 1108 0
-175 1116 0
-175 1122 0
-174 14 0
-174 21 0
-174 27 0
-174 29 0
-174 39 0
-174 47 0
-174 65 0
-174 73 0
-174 88 0
-174 1067 0
-174 1084 0
-174 1098 0
-174 1108 0
-174 1116 0
-174 1122 0
-173 10 0
-173 16 0
-173 19 0
-172 10 0
-172 16 0
-172 23 0
-171 11 0
-171 14 0
-171 27 0
-171 29 0
-171 39 0
-171 47 0
-171 65 0
-171 73 0
-171 88 0
-171 1067 0
-171 1084 0
-171 1098 0
-171 1108 0
-171 1116 0
-171 1122 0
-170 14 0
-170 19 0
-170 21 0
-170 29 0
-170 39 0
-170 47 0
-170 65 0
-170 73 0
-170 88 0
-170 1067 0
-170 1084 0
-170 1098 0
-170 1108 0
-170 1116 0
-170 1122 0
-169 14 0
-169 18 0
-169 27 0
-169 29 0
-169 39 0
-169 47 0
-169 65 0
-169 73 0
-169 88 0
-169 1067 0
-169 1084 0
-169 1098 0
-169 1108 0
-169 1116 0
-169 1122 0
-168 14 0
-168 21 0
-168 24 0
-168 29 0
-168 39 0
-168 47 0
-168 65 0
-168 73 0
-168 88 0
-168 1067 0
-168 1084 0
-168 1098 0
-168 1108 0
-168 1116 0
-168 1122 0
-167 14 0
-167 16 0
-167 23 0
-167 29 0
-167 39 0
-167 47 0
-167 65 0
-167 73 0
-167 88 0
-167 1067 0
-167 1084 0
-167 1098 0
-167 1108 0
-167 1116 0
-167 1122 0
-166 14 0
-166 18 0
-166 19 0
-166 29 0
-166 39 0
-166 47 0
-166 65 0
-166 73 0
-166 88 0
-166 1067 0
-166 1084 0
-166 1098 0
-166 1108 0
-166 1116 0
-166 1122 0
-165 4 0
-165 15 0
-165 17 0
-164 14 0
-164 18 0
-164 23 0
-164 29 0
-164 39 0
-164 47 0
-164 65 0
-164 73 0
-164 88 0
-164 1067 0
-164 1084 0
-164 1098 0
-164 1108 0
-164 1116 0
-164 1122 0
-163 4 0
-163 9 0
-163 15 0
-162 14 0
-162 16 0
-162 27 0
-162 29 0
-162 39 0
-162 47 0
-162 65 0
-162 73 0
-162 88 0
-162 1067 0
-162 1084 0
-162 1098 0
-162 1108 0
-162 1116 0
-162 1122 0
-161 14 0
-161 21 0
-161 23 0
-161 29 0
-161 39 0
-161 47 0
-161 65 0
-161 73 0
-161 88 0
-161 1067 0
-161 1084 0
-161 1098 0
-161 1108 0
-161 1116 0
-161 1122 0
-160 14 0
-160 16 0
-160 19 0
-160 29 0
-160 39 0
-160 47 0
-160 65 0
-160 73 0
-160 88 0
-160 1067 0
-160 1084 0
-160 1098 0
-160 1108 0
-160 1116 0
-160 1122 0
-159 4 0
-159 7 0
-159 15 0
-158 14 0
-158 16 0
-158 24 0
-158 29 0
-158 39 0
-158 47 0
-158 65 0
-158 73 0
-158 88 0
-158 1067 0
-158 1084 0
-158 1098 0
-158 1108 0
-158 1116 0
-158 1122 0
-157 4 0
-157 6 0
-157 9 0
-156 4 0
-156 6 0
-156 13 0
-155 4 0
-155 13 0
-155 15 0
-154 4 0
-154 7 0
-154 8 0
-153 4 0
-153 6 0
-153 17 0
-152 4 0
-152 8 0
-152 9 0
-151 4 0
-151 8 0
-151 17 0
-150 4 0
-150 6 0
-150 7 0
-149 4 0
-149 8 0
-149 13 0
-148 2 0
-148 15 0
-148 17 0
-147 4 0
-147 5 0
-147 17 0
-146 4 0
-146 5 0
-146 13 0
-145 4 0
-145 5 0
-145 9 0
-144 2 0
-144 6 0
-144 13 0
-143 2 0
-143 6 0
-143 7 0
-142 2 0
-142 13 0
-142 15 0
-141 4 0
-141 5 0
-141 7 0
-140 2 0
-140 7 0
-140 15 0
-139 2 0
-139 9 0
-139 15 0
-138 2 0
-138 6 0
-138 17 0
-137 2 0
-137 7 0
-137 8 0
-136 2 0
-136 6 0
-136 9 0
-135 2 0
-135 8 0
-135 17 0
-134 2 0
-134 8 0
-134 13 0
-133 2 0
-133 5 0
-133 7 0
-132 1 0
-132 15 0
-132 17 0
-131 2 0
-131 5 0
-131 13 0
-130 1 0
-130 7 0
-130 15 0
-129 2 0
-129 8 0
-129 9 0
-128 1 0
-128 13 0
-128 15 0
-127 2 0
-127 5 0
-127 17 0
-126 2 0
-126 5 0
-126 9 0
-125 1 0
-125 6 0
-125 17 0
-124 1 0
-124 6 0
-124 13 0
-123 1 0
-123 8 0
-123 17 0
-122 1 0
-122 9 0
-122 15 0
-121 1 0
-121 7 0
-121 8 0
-120 1 0
-120 8 0
-120 9 0
-119 1 0
-119 5 0
-119 17 0
-118 1 0
-118 5 0
-118 13 0
-117 1 0
-117 6 0
-117 9 0
-116 1 0
-116 5 0
-116 7 0
-115 1 0
-115 6 0
-115 7 0
-114 1 0
-114 5 0
-114 9 0
-113 1 0
-113 8 0
-113 13 0
-112 3 0
-112 7 0
-112 14 0
-112 15 0
-112 29 0
-112 39 0
-112 47 0
-112 65 0
-112 73 0
-112 88 0
-112 1061 0
-112 1067 0
-112 1084 0
-112 1098 0
-112 1108 0
-112 1116 0
-112 1122 0
-111 3 0
-111 13 0
-111 14 0
-111 15 0
-111 29 0
-111 39 0
-111 47 0
-111 65 0
-111 73 0
-111 88 0
-111 1061 0
-111 1067 0
-111 1084 0
-111 1098 0
-111 1108 0
-111 1116 0
-111 1122 0
-110 3 0
-110 9 0
-110 14 0
-110 15 0
-110 29 0
-110 39 0
-110 47 0
-110 65 0
-110 73 0
-110 88 0
-110 1061 0
-110 1067 0
-110 1084 0
-110 1098 0
-110 1108 0
-110 1116 0
-110 1122 0
-109 3 0
-109 14 0
-109 15 0
-109 17 0
-109 29 0
-109 39 0
-109 47 0
-109 65 0
-109 73 0
-109 88 0
-109 1061 0
-109 1067 0
-109 1084 0
-109 1098 0
-109 1108 0
-109 1116 0
-109 1122 0
-108 3 0
-108 6 0
-108 9 0
-108 14 0
-108 29 0
-108 39 0
-108 47 0
-108 65 0
-108 73 0
-108 88 0
-108 1061 0
-108 1067 0
-108 1084 0
-108 1098 0
-108 1108 0
-108 1116 0
-108 1122 0
-107 3 0
-107 8 0
-107 14 0
-107 17 0
-107 29 0
-107 39 0
-107 47 0
-107 65 0
-107 73 0
-107 88 0
-107 1061 0
-107 1067 0
-107 1084 0
-107 1098 0
-107 1108 0
-107 1116 0
-107 1122 0
-106 3 0
-106 8 0
-106 13 0
-106 14 0
-106 29 0
-106 39 0
-106 47 0
-106 65 0
-106 73 0
-106 88 0
-106 1061 0
-106 1067 0
-106 1084 0
-106 1098 0
-106 1108 0
-106 1116 0
-106 1122 0
-105 3 0
-105 6 0
-105 13 0
-105 14 0
-105 29 0
-105 39 0
-105 47 0
-105 65 0
-105 73 0
-105 88 0
-105 1061 0
-105 1067 0
-105 1084 0
-105 1098 0
-105 1108 0
-105 1116 0
-105 1122 0
-104 3 0
-104 6 0
-104 14 0
-104 17 0
-104 29 0
-104 39 0
-104 47 0
-104 65 0
-104 73 0
-104 88 0
-104 1061 0
-104 1067 0
-104 1084 0
-104 1098 0
-104 1108 0
-104 1116 0
-104 1122 0
-103 3 0
-103 8 0
-103 9 0
-103 14 0
-103 29 0
-103 39 0
-103 47 0
-103 65 0
-103 73 0
-103 88 0
-103 1061 0
-103 1067 0
-103 1084 0
-103 1098 0
-103 1108 0
-103 1116 0
-103 1122 0
-102 3 0
-102 6 0
-102 7 0
-102 14 0
-102 29 0
-102 39 0
-102 47 0
-102 65 0
-102 73 0
-102 88 0
-102 1061 0
-102 1067 0
-102 1084 0
-102 1098 0
-102 1108 0
-102 1116 0
-102 1122 0
-101 3 0
-101 5 0
-101 9 0
-101 14 0
-101 29 0
-101 39 0
-101 47 0
-101 65 0
-101 73 0
-101 88 0
-101 1061 0
-101 1067 0
-101 1084 0
-101 1098 0
-101 1108 0
-101 1116 0
-101 1122 0
-100 3 0
-100 5 0
-100 14 0
-100 17 0
-100 29 0
-100 39 0
-100 47 0
-100 65 0
-100 73 0
-100 88 0
-100 1061 0
-100 1067 0
-100 1084 0
-100 1098 0
-100 1108 0
-100 1116 0
-100 1122 0
-98 3 0
-98 5 0
-98 13 0
-98 14 0
-98 29 0
-98 39 0
-98 47 0
-98 65 0
-98 73 0
-98 88 0
-98 1061 0
-98 1067 0
-98 1084 0
-98 1098 0
-98 1108 0
-98 1116 0
-98 1122 0
-97 3 0
-97 7 0
-97 8 0
-97 14 0
-97 29 0
-97 39 0
-97 47 0
-97 65 0
-97 73 0
-97 88 0
-97 1061 0
-97 1067 0
-97 1084 0
-97 1098 0
-97 1108 0
-97 1116 0
-97 1122 0
-96 3 0
-96 5 0
-96 7 0
-96 14 0
-96 29 0
-96 39 0
-96 47 0
-96 65 0
-96 73 0
-96 88 0
-96 1061 0
-96 1067 0
-96 1084 0
-96 1098 0
-96 1108 0
-96 1116 0
-96 1122 0
-93 556 0
-73 88 0
-73 1122 0
-65 73 0
-65 88 0
-65 1116 0
-65 1122 0
-47 65 0
-47 73 0
-47 88 0
-47 1108 0
-47 1116 0
-47 1122 0
-39 47 0
-39 65 0
-39 73 0
-39 88 0
-39 1098 0
-39 1108 0
-39 1116 0
-39 1122 0
-29 39 0
-29 47 0
-29 65 0
-29 73 0
-29 88 0
-29 1084 0
-29 1098 0
-29 1108 0
-29 1116 0
-29 1122 0
-14 29 0
-14 39 0
-14 47 0
-14 65 0
-14 73 0
-14 88 0
-14 1067 0
-14 1084 0
-14 1098 0
-14 1108 0
-14 1116 0
-14 1122 0
-3 14 0
-3 29 0
-3 39 0
-3 47 0
-3 65 0
-3 73 0
-3 88 0
-3 1061 0
-3 1067 0
-3 1084 0
-3 1098 0
-3 1108 0
-3 1116 0
-3 1122 0
14 1061 0
22 271 0
29 1061 0
29 1067 0
31 271 0
35 271 0
39 1061 0
39 1067 0
39 1084 0
47 1061 0
47 1067 0
47 1084 0
47 1098 0
65 1061 0
65 1067 0
65 1084 0
65 1098 0
65 1108 0
73 481 0
73 1061 0
73 1067 0
73 1084 0
73 1098 0
73 1108 0
73 1116 0
82 481 0
85 556 0
85 571 0
88 481 0
88 1061 0
88 1067 0
88 1084 0
88 1098 0
88 1108 0
88 1116 0
88 1122 0
89 481 0
90 571 0
91 556 0
99 571 0
481 1122 0
1061 1067 0
1061 1084 0
1061 1098 0
1061 1108 0
1061 1116 0
1061 1122 0
1067 1084 0
1067 1098 0
1067 1108 0
1067 1116 0
1067 1122 0
1084 1098 0
1084 1108 0
1084 1116 0
1084 1122 0
1098 1108 0
1098 1116 0
1098 1122 0
1108 1116 0
1108 1122 0
1115 1123 0
1116 1122 0
1116 1123 0
1117 1123 0
1118 1123 0
1120 1123 0
1123 1124 0
1123 1125 0
1123 1126 0
1123 1127 0
